NAME: concorde91
TYPE: TSP
DIMENSION: 15 
EDGE_WEIGHT_TYPE: EUC_2D
NODE_COORD_SECTION
1 74 4
2 50 1
3 58 20
4 1 51
5 47 93
6 4 13
7 46 17
8 63 61
9 67 82
10 8 85
11 14 79
12 91 1
13 12 70
14 73 82
15 95 57
